Quantum-Cryptanalysis/instances/samples/hf_n32/hf_n32_cnf02.sol
c DPLL-like Solver for max-min SAT
f file hf_n32_cnf02.cnf
p cnf 32 220
s max  220 -12 -9 11 10 -19 7 -18 8 6 -31 -4 25 -3 -1 -2 -27 15 -20 -14 13 -21 26 -5 -30 -16 -28 -29 -24 -22 -32 -17 -23
s min  192 12 9 27 -10 11 13 16 15 14 -20 -23 -24 28 -32 -21 8 18 19 31 -17 26 22 25 -29 -30 1 2 -3 -4 5 6 7